p tw 61 68
1 2
2 13
3 4
3 41
4 53
5 6
6 7
6 9
7 8
8 56
9 10
10 11
11 12
12 14
13 24
14 15
15 16
16 17
17 18
18 19
19 20
20 21
21 22
22 23
23 25
24 35
25 26
26 27
27 28
27 32
28 29
29 30
30 31
31 37
32 33
33 34
34 36
35 46
36 37
37 38
38 39
39 40
40 41
41 42
42 43
42 48
43 44
44 45
44 50
45 47
46 57
47 48
47 50
48 49
49 56
50 51
51 52
51 12
52 53
53 54
54 55
55 56
56 58
57 59
59 60
60 61
60 5
61 3
